183 5
10 10 10 10 10 

0 0 0 0 0 0 2 2 14 
0 0 0 0 0 0 2 3 4 
9 0 0 0 1 0 4 8 7 6 5 
3 0 0 0 1 0 4 8 7 6 5 
10 0 0 0 4 0 4 12 11 10 9 
4 0 0 0 2 0 4 12 11 10 9 
3 0 0 0 4 0 4 12 11 10 9 
2 0 0 0 3 0 4 12 11 10 9 
8 0 0 0 3 0 1 13 
10 0 0 0 2 0 1 13 
3 0 0 0 3 0 1 13 
1 0 0 0 2 0 1 13 
0 0 0 0 0 0 1 26 
0 0 0 0 0 0 2 15 16 
10 0 1 0 0 0 4 20 19 18 17 
8 0 2 0 0 0 2 20 17 
8 0 5 0 0 0 4 24 23 22 21 
6 0 4 0 0 0 4 24 23 22 21 
8 0 1 0 0 0 4 24 23 22 21 
3 0 6 0 0 0 3 23 22 21 
6 0 2 0 0 0 1 25 
10 0 1 0 0 0 1 25 
2 0 2 0 0 0 1 25 
4 0 1 0 0 0 1 25 
0 0 0 0 0 0 1 26 
0 0 0 0 0 0 2 27 39 
0 0 0 0 0 0 5 28 29 30 32 33 
1 1 0 0 0 0 2 37 31 
1 5 0 0 0 0 2 35 31 
5 4 0 0 0 0 2 35 31 
7 1 0 0 0 0 1 34 
5 3 0 0 0 0 1 36 
3 2 0 0 0 0 1 34 
1 2 0 0 0 0 1 38 
2 2 0 0 0 0 1 38 
7 2 0 0 0 0 1 38 
6 3 0 0 0 0 1 38 
0 0 0 0 0 0 2 81 93 
0 0 0 0 0 0 3 40 41 45 
10 1 1 0 1 1 4 49 44 43 42 
1 1 4 0 3 1 4 54 52 48 46 
3 1 2 0 2 1 6 65 54 53 52 50 48 
9 2 3 0 4 6 3 52 48 46 
4 2 1 0 3 1 5 68 52 51 50 47 
7 3 3 0 4 3 4 68 53 49 48 
9 2 4 0 1 2 4 68 56 51 47 
1 1 1 0 1 2 7 65 62 60 59 58 57 53 
2 3 6 0 1 2 4 62 60 55 51 
8 3 3 0 1 3 4 65 59 56 52 
3 2 1 0 4 5 6 61 60 59 58 57 56 
1 5 1 0 2 4 6 67 64 61 59 58 57 
2 3 3 0 1 2 5 67 60 58 57 55 
8 2 2 0 6 2 4 67 64 61 55 
5 4 4 0 2 1 4 71 68 60 56 
4 2 3 0 2 5 3 72 66 63 
5 4 4 0 2 2 3 70 67 64 
8 3 4 0 1 1 2 66 63 
7 2 1 0 1 3 3 71 70 69 
1 2 4 0 2 6 3 71 70 69 
7 1 2 0 1 1 2 70 66 
3 1 4 0 3 2 2 72 66 
5 2 2 0 3 3 2 70 66 
6 2 1 0 2 2 4 74 73 71 70 
4 3 3 0 3 2 1 66 
9 2 4 0 1 2 3 73 71 70 
4 4 1 0 1 4 2 79 69 
6 2 5 0 4 3 2 72 69 
4 1 2 0 1 3 2 79 69 
7 6 2 0 5 1 3 78 74 73 
10 4 2 0 4 4 4 78 77 76 75 
8 3 3 0 5 3 4 79 78 76 75 
2 2 2 0 2 2 1 73 
4 2 2 0 3 2 3 77 76 75 
10 2 2 0 3 2 3 77 76 75 
10 4 2 0 5 2 1 80 
7 3 1 0 4 2 1 80 
3 4 1 0 1 1 1 80 
4 2 1 0 2 5 1 80 
3 2 3 0 3 1 1 80 
0 0 0 0 0 0 1 183 
0 0 0 0 0 0 5 82 83 84 85 91 
1 0 0 0 1 0 3 89 88 86 
1 0 0 0 3 0 3 90 89 87 
4 0 0 0 1 0 3 89 88 87 
5 0 0 0 5 0 2 88 87 
5 0 0 0 1 0 1 87 
1 0 0 0 3 0 1 92 
10 0 0 0 3 0 1 92 
1 0 0 0 2 0 1 92 
6 0 0 0 3 0 1 92 
8 0 0 0 3 0 1 92 
0 0 0 0 0 0 2 125 137 
0 0 0 0 0 0 6 94 95 96 97 98 123 
2 1 0 1 1 0 5 105 102 101 100 99 
2 1 0 3 2 0 5 122 103 102 101 99 
7 2 0 1 3 0 4 109 101 100 99 
5 3 0 4 3 0 4 105 102 101 99 
3 1 0 2 1 0 2 121 100 
4 3 0 5 2 0 3 114 108 104 
5 2 0 2 1 0 3 120 107 103 
5 2 0 2 2 0 2 114 106 
10 2 0 1 6 0 5 119 117 114 113 109 
4 1 0 4 1 0 1 106 
7 3 0 2 5 0 1 106 
8 2 0 3 2 0 1 106 
1 1 0 2 5 0 5 119 118 117 113 110 
3 7 0 2 2 0 5 119 118 117 116 110 
4 3 0 4 3 0 5 120 118 117 116 111 
2 3 0 3 3 0 2 120 110 
9 4 0 1 3 0 1 111 
10 2 0 4 3 0 1 112 
4 2 0 1 2 0 1 115 
5 3 0 2 2 0 1 116 
4 2 0 1 4 0 1 120 
8 3 0 4 1 0 1 124 
2 3 0 4 2 0 1 124 
2 4 0 3 2 0 1 124 
1 5 0 2 4 0 1 124 
8 2 0 3 3 0 1 124 
6 4 0 2 2 0 1 124 
9 2 0 2 3 0 1 124 
1 1 0 4 1 0 1 124 
9 1 0 1 1 0 1 124 
0 0 0 0 0 0 1 183 
0 0 0 0 0 0 3 126 127 135 
9 0 0 0 1 0 4 134 133 132 129 
4 0 0 0 2 0 2 131 128 
9 0 0 0 1 0 2 130 129 
8 0 0 0 3 0 1 136 
7 0 0 0 3 0 1 136 
10 0 0 0 5 0 1 136 
8 0 0 0 5 0 1 136 
9 0 0 0 2 0 1 136 
2 0 0 0 1 0 1 136 
6 0 0 0 2 0 1 136 
0 0 0 0 0 0 2 159 171 
0 0 0 0 0 0 6 138 140 141 144 145 148 
4 0 1 1 0 0 2 149 139 
8 0 1 2 0 0 4 157 150 146 142 
3 0 2 1 0 0 3 154 150 143 
2 0 1 3 0 0 2 149 142 
7 0 4 2 0 0 4 156 153 151 147 
6 0 2 2 0 0 4 157 156 155 146 
10 0 1 3 0 0 3 154 149 146 
3 0 3 2 0 0 2 150 146 
2 0 3 2 0 0 3 153 152 151 
4 0 6 4 0 0 3 155 154 152 
10 0 4 4 0 0 3 157 152 151 
1 0 1 3 0 0 2 152 150 
2 0 2 4 0 0 1 151 
8 0 4 2 0 0 1 158 
4 0 1 2 0 0 1 158 
7 0 2 3 0 0 1 158 
8 0 5 3 0 0 1 158 
7 0 2 3 0 0 1 158 
5 0 3 2 0 0 1 158 
5 0 2 2 0 0 1 158 
0 0 0 0 0 0 1 183 
0 0 0 0 0 0 5 160 161 162 168 169 
3 0 0 0 0 1 2 167 165 
10 0 0 0 0 2 2 164 163 
2 0 0 0 0 4 2 167 166 
5 0 0 0 0 3 1 166 
4 0 0 0 0 2 1 166 
3 0 0 0 0 4 1 166 
4 0 0 0 0 1 1 170 
7 0 0 0 0 1 1 170 
1 0 0 0 0 3 1 170 
1 0 0 0 0 4 1 170 
0 0 0 0 0 0 1 183 
0 0 0 0 0 0 4 172 173 180 181 
4 0 0 0 1 0 4 179 178 176 174 
4 0 0 0 3 0 3 177 176 174 
10 0 0 0 2 0 1 175 
9 0 0 0 5 0 1 182 
8 0 0 0 4 0 1 182 
3 0 0 0 1 0 1 182 
10 0 0 0 2 0 1 182 
6 0 0 0 4 0 1 182 
9 0 0 0 2 0 1 182 
8 0 0 0 1 0 1 182 
0 0 0 0 0 0 1 183 
0 0 0 0 0 0 0 
